qe/outputs/qe/qe_queries_wdomain/T=5,eliminate=[I_0,I_1,I_2,I_3,I_4,L_4,B].smt2
; benchmark generated from python API
(set-info :status unknown)
(declare-fun S_0 () Real)
(declare-fun A_0 () Real)
(declare-fun L_0 () Real)
(declare-fun S_3 () Real)
(declare-fun L_2 () Real)
(declare-fun A_2 () Real)
(declare-fun C () Real)
(declare-fun S_4 () Real)
(declare-fun S_2 () Real)
(declare-fun A_4 () Real)
(declare-fun L_3 () Real)
(declare-fun S_1 () Real)
(declare-fun A_1 () Real)
(declare-fun L_1 () Real)
(declare-fun A_3 () Real)
(assert
 (let (($x2306 (>= C 5.0)))
 (let (($x13050 (<= (+ (* (- 1.0) A_1) L_1 (* (- 1.0) C) A_2 (* (- 1.0) L_2)) 0.0)))
 (let (($x13151 (not $x13050)))
 (let (($x12978 (<= (+ A_3 (* (- 2.0) C) (* (- 1.0) A_1)) 0.0)))
 (let (($x8371 (<= (+ (* (- 1.0) A_0) L_0 (* (- 2.0) C) A_2 (* (- 1.0) L_2)) 0.0)))
 (let (($x8373 (not $x8371)))
 (let ((?x8402 (* (- 1.0) L_3)))
 (let (($x11122 (<= ?x8402 (+ C A_2 (* (- 1.0) L_2) (* (- 1.0) A_3)))))
 (let (($x1390 (not $x11122)))
 (let ((?x2249 (* (- 1.0) L_0)))
 (let ((?x5809 (+ A_0 ?x2249 C)))
 (let ((?x505 (* (- 1.0) L_1)))
 (let ((?x1279 (+ A_1 ?x505)))
 (let (($x5736 (<= ?x1279 ?x5809)))
 (let (($x17268 (not $x5736)))
 (let ((?x9959 (* (- 1.0) A_3)))
 (let ((?x437 (* 2.0 C)))
 (let ((?x15834 (* (- 2.0) L_2)))
 (let ((?x13772 (+ A_1 ?x15834 ?x437 ?x9959 L_3 A_0)))
 (let (($x13769 (>= S_1 ?x13772)))
 (let (($x22376 (or (not (<= (+ A_0 ?x2249 ?x437) (+ A_2 (* (- 1.0) L_2)))) (<= (+ A_0 ?x2249 ?x437) (+ A_2 ?x8402)) $x13769 $x17268)))
 (let ((?x1460 (* (- 1.0) L_2)))
 (let ((?x4574 (* 3.0 C)))
 (let ((?x1312 (* 2.0 A_0)))
 (let ((?x9398 (+ ?x1312 ?x2249 ?x4574 ?x9959 L_3 ?x1460)))
 (let (($x8250 (>= S_1 ?x9398)))
 (let (($x3053 (= ?x8402 ?x505)))
 (let (($x9329 (= ?x505 ?x2249)))
 (let (($x8354 (<= S_0 ?x9398)))
 (let (($x5292 (= ?x1460 ?x505)))
 (let (($x7458 (not $x5292)))
 (let ((?x6995 (* (- 1.0) A_2)))
 (let ((?x4556 (* (- 2.0) L_1)))
 (let ((?x13020 (+ A_1 ?x4556 C ?x6995 L_2 A_0)))
 (let (($x7422 (>= S_1 ?x13020)))
 (let ((?x11108 (+ ?x1312 ?x2249 ?x437 ?x6995 L_2 ?x505)))
 (let (($x1383 (>= S_1 ?x11108)))
 (let (($x14325 (<= ?x505 (+ ?x6995 (* (- 1.0) C) A_3 ?x8402))))
 (let ((?x8251 (+ A_2 ?x1460)))
 (let (($x5000 (<= ?x8251 (+ (* (- 1.0) C) A_3 ?x8402))))
 (let (($x6616 (not $x5000)))
 (let ((?x13009 (* 2.0 L_2)))
 (let ((?x805 (* (- 1.0) A_1)))
 (let ((?x16017 (+ ?x805 A_0 ?x8402 A_3 ?x6995 ?x13009 ?x2249)))
 (let (($x14166 (= ?x16017 0.0)))
 (let (($x6076 (<= ?x16017 0.0)))
 (let (($x3673 (not $x6076)))
 (let (($x15375 (or $x3673 $x14166 (not (<= 0.0 (+ (* (- 2.0) C) A_3 ?x805))) (<= ?x1460 (+ (* (- 2.0) C) A_3 ?x8402 ?x805)))))
 (let ((?x17165 (+ A_2 ?x4556 C ?x9959 L_3 A_0)))
 (let (($x671 (>= S_1 ?x17165)))
 (let (($x14097 (not (<= 0.0 (+ L_2 (* (- 1.0) A_0) S_0)))))
 (let (($x7038 (not (<= ?x5809 (+ A_1 ?x1460)))))
 (let (($x5653 (<= ?x5809 ?x1279)))
 (let (($x15569 (or $x1390 $x5653 $x12978 (not (<= (+ ?x805 L_2 (* (- 2.0) C) A_3 ?x8402) 0.0)))))
 (let (($x13283 (or (not (= ?x1460 ?x8402)) $x5292 $x5653 (>= S_1 (+ A_1 ?x4556 C ?x6995 L_3 A_0)))))
 (let (($x17336 (<= A_3 (+ A_2 C))))
 (let ((?x2824 (+ A_0 ?x2249 ?x437)))
 (let (($x5824 (<= ?x2824 ?x8251)))
 (let (($x179 (<= ?x8402 (+ (* (- 1.0) C) A_2 ?x1460 ?x805))))
 (let (($x17314 (<= (+ C A_2 ?x1460 (* (- 1.0) S_4)) 0.0)))
 (let (($x4885 (<= (+ ?x505 A_1 ?x437 (* (- 1.0) S_4)) 0.0)))
 (let ((?x2248 (+ A_3 ?x8402)))
 (let ((?x4956 (+ A_0 ?x2249 ?x4574)))
 (let (($x2548 (<= ?x4956 ?x2248)))
 (let (($x12899 (or (<= (+ ?x505 A_1 C (* (- 1.0) S_3)) 0.0) (>= S_3 ?x2824) (<= (+ A_2 ?x1460 (* (- 1.0) S_3)) 0.0))))
 (let (($x41 (>= A_1 A_0)))
 (let (($x42 (>= A_2 A_1)))
 (let (($x43 (>= A_3 A_2)))
 (let (($x44 (>= A_4 A_3)))
 (and (<= ?x505 ?x2249) $x44 $x43 $x42 $x41 (<= ?x8402 ?x1460) (<= ?x1460 ?x505) (or (<= ?x1279 (+ (* (- 1.0) C) A_2 ?x1460)) $x5292) (<= S_2 ?x2824) (<= S_3 ?x4956) (<= S_1 ?x5809) (<= S_0 S_1) (or (<= (+ ?x505 A_1 (* (- 1.0) S_2)) 0.0) (>= S_2 ?x5809)) (<= S_4 (+ A_0 ?x2249 (* 4.0 C))) (<= S_3 ?x2248) (or $x5653 (<= S_0 (+ A_1 ?x4556 C ?x6995 L_3 A_0)) $x9329) (or $x5653 $x9329 (<= S_0 ?x13020)) $x12899 (<= S_4 (+ A_3 ?x8402 C)) (or $x5653 (not (= ?x505 ?x1460)) $x9329 $x14097) (or $x5653 $x9329 (<= S_0 ?x17165)) (or $x4885 (not $x2548) (>= S_4 ?x4956) $x17314) (or $x5653 (not (= ?x505 ?x1460)) $x9329 (<= S_0 ?x13772)) (or $x2548 (>= S_4 ?x2248) $x4885 $x17314) (or $x5292 $x5653 $x13151) (or $x179 $x671 $x3053 $x5824) (or $x6076 (not (= ?x505 ?x1460)) $x9329 (<= S_0 ?x17165)) (or $x671 $x3053 $x5653 $x7458 $x13769) (or $x671 $x3053 $x5824 $x7038) (or $x1390 (<= (+ ?x505 A_1 ?x437 L_3 ?x9959) 0.0) $x17336) (or $x5292 $x11122) (or (= ?x8402 ?x1460) $x5000) $x13283 (or $x179 $x671 $x3053 $x8373) (or $x1383 $x1390 $x5736 $x17336) $x15569 (or $x3053 $x3673 $x11122 $x14166 (not $x12978)) (or (<= S_0 ?x11108) $x9329 $x13050) (or $x1383 $x1390 $x13769 $x17336) (or $x5653 $x6616 $x7422 $x14325) (or $x7038 $x9329 $x14097 $x17268) (or $x671 $x3053 $x5736 $x8250 $x11122) $x15375 (or $x1383 $x5292 $x5736) (or $x6616 $x13151 $x14325 $x17268) (or $x1383 $x5292 $x7422) (or $x5292 $x8373 $x13151) (or $x8354 $x9329 $x11122 $x17268) (or $x7458 $x8354 $x9329 (<= (+ A_3 ?x8402 (* (- 2.0) C)) ?x1279)) (or $x3053 $x8250 $x8371 $x11122 $x13769) $x22376 (or $x1390 $x8373 $x12978 $x13151) $x2306 (<= (+ L_1 ?x805 (* (- 3.0) C) S_4) 0.0) (<= (+ L_1 ?x805 (* (- 1.0) C) S_2) 0.0) (<= (+ L_1 ?x805 (* (- 2.0) C) S_3) 0.0) (<= (+ L_1 ?x805 S_1) 0.0) (<= (+ S_4 L_3 (* (- 1.0) A_4)) 0.0) (<= (+ ?x6995 L_2 S_2) 0.0) (<= (+ ?x6995 L_2 S_4 (* (- 2.0) C)) 0.0) (<= (+ (* (- 1.0) C) ?x6995 L_2 S_3) 0.0) (<= (+ L_0 (* (- 1.0) A_0) S_0) 0.0))))))))))))))))))))))))))))))))))))))))))))))))))))))))))))))))))))))))
(check-sat)
